Route #1: 48 5 30 8 14
Route #2: 18 21 34 7 15 49
Route #3: 17 3 40 42 11 23
Route #4: 46 26 41 16 37 1 35
Route #5: 43 27 19 31 45
Route #6: 24 38 36 47 33
Route #7: 50 44 29 22 28 2
Route #8: 20 13 6 4 39
Route #9: 25 10 12 32 9
Cost 10396336.000000